VER
1

OBJSENSE
MIN

VAR
120 1
L+ 120

INT
120
0
1
2
3
4
5
6
7
8
9
10
11
12
13
14
15
16
17
18
19
20
21
22
23
24
25
26
27
28
29
30
31
32
33
34
35
36
37
38
39
40
41
42
43
44
45
46
47
48
49
50
51
52
53
54
55
56
57
58
59
60
61
62
63
64
65
66
67
68
69
70
71
72
73
74
75
76
77
78
79
80
81
82
83
84
85
86
87
88
89
90
91
92
93
94
95
96
97
98
99
100
101
102
103
104
105
106
107
108
109
110
111
112
113
114
115
116
117
118
119

CON
152 1
L+ 152

PSDCON
1
16

OBJACOORD
32
0 58796.000000000
2 5321.000000000
3 1426.000000000
11 155810.000000000
15 156870.000000000
18 112600.000000000
26 73935.000000000
29 40929.000000000
32 72683.000000000
40 -33728.000000000
45 -155610.000000000
53 90209.000000000
54 -14354.000000000
56 196360.000000000
57 57358.000000000
65 84824.000000000
68 -126570.000000000
75 35001.000000000
78 -72801.000000000
87 94843.000000000
92 -93394.000000000
94 -138660.000000000
95 93909.000000000
99 52797.000000000
102 -42342.000000000
105 -16947.000000000
108 83855.000000000
113 28782.000000000
114 -35486.000000000
116 -25983.000000000
117 -44214.000000000
119 62411.000000000

ACOORD
600
0 0 -1.000000000
1 1 -1.000000000
2 2 -1.000000000
3 3 -1.000000000
4 4 -1.000000000
5 5 -1.000000000
6 6 -1.000000000
7 7 -1.000000000
8 8 -1.000000000
9 9 -1.000000000
10 10 -1.000000000
11 11 -1.000000000
12 12 -1.000000000
13 13 -1.000000000
14 14 -1.000000000
15 15 -1.000000000
16 16 -1.000000000
17 17 -1.000000000
18 18 -1.000000000
19 19 -1.000000000
20 20 -1.000000000
21 21 -1.000000000
22 22 -1.000000000
23 23 -1.000000000
24 24 -1.000000000
25 25 -1.000000000
26 26 -1.000000000
27 27 -1.000000000
28 28 -1.000000000
29 29 -1.000000000
30 30 -1.000000000
31 31 -1.000000000
32 32 -1.000000000
33 33 -1.000000000
34 34 -1.000000000
35 35 -1.000000000
36 36 -1.000000000
37 37 -1.000000000
38 38 -1.000000000
39 39 -1.000000000
40 40 -1.000000000
41 41 -1.000000000
42 42 -1.000000000
43 43 -1.000000000
44 44 -1.000000000
45 45 -1.000000000
46 46 -1.000000000
47 47 -1.000000000
48 48 -1.000000000
49 49 -1.000000000
50 50 -1.000000000
51 51 -1.000000000
52 52 -1.000000000
53 53 -1.000000000
54 54 -1.000000000
55 55 -1.000000000
56 56 -1.000000000
57 57 -1.000000000
58 58 -1.000000000
59 59 -1.000000000
60 60 -1.000000000
61 61 -1.000000000
62 62 -1.000000000
63 63 -1.000000000
64 64 -1.000000000
65 65 -1.000000000
66 66 -1.000000000
67 67 -1.000000000
68 68 -1.000000000
69 69 -1.000000000
70 70 -1.000000000
71 71 -1.000000000
72 72 -1.000000000
73 73 -1.000000000
74 74 -1.000000000
75 75 -1.000000000
76 76 -1.000000000
77 77 -1.000000000
78 78 -1.000000000
79 79 -1.000000000
80 80 -1.000000000
81 81 -1.000000000
82 82 -1.000000000
83 83 -1.000000000
84 84 -1.000000000
85 85 -1.000000000
86 86 -1.000000000
87 87 -1.000000000
88 88 -1.000000000
89 89 -1.000000000
90 90 -1.000000000
91 91 -1.000000000
92 92 -1.000000000
93 93 -1.000000000
94 94 -1.000000000
95 95 -1.000000000
96 96 -1.000000000
97 97 -1.000000000
98 98 -1.000000000
99 99 -1.000000000
100 100 -1.000000000
101 101 -1.000000000
102 102 -1.000000000
103 103 -1.000000000
104 104 -1.000000000
105 105 -1.000000000
106 106 -1.000000000
107 107 -1.000000000
108 108 -1.000000000
109 109 -1.000000000
110 110 -1.000000000
111 111 -1.000000000
112 112 -1.000000000
113 113 -1.000000000
114 114 -1.000000000
115 115 -1.000000000
116 116 -1.000000000
117 117 -1.000000000
118 118 -1.000000000
119 119 -1.000000000
120 0 1.000000000
120 1 1.000000000
120 2 1.000000000
120 3 1.000000000
120 4 1.000000000
120 5 1.000000000
120 6 1.000000000
120 7 1.000000000
120 8 1.000000000
120 9 1.000000000
120 10 1.000000000
120 11 1.000000000
120 12 1.000000000
120 13 1.000000000
120 14 1.000000000
121 0 -1.000000000
121 1 -1.000000000
121 2 -1.000000000
121 3 -1.000000000
121 4 -1.000000000
121 5 -1.000000000
121 6 -1.000000000
121 7 -1.000000000
121 8 -1.000000000
121 9 -1.000000000
121 10 -1.000000000
121 11 -1.000000000
121 12 -1.000000000
121 13 -1.000000000
121 14 -1.000000000
122 0 1.000000000
122 15 1.000000000
122 16 1.000000000
122 17 1.000000000
122 18 1.000000000
122 19 1.000000000
122 20 1.000000000
122 21 1.000000000
122 22 1.000000000
122 23 1.000000000
122 24 1.000000000
122 25 1.000000000
122 26 1.000000000
122 27 1.000000000
122 28 1.000000000
123 0 -1.000000000
123 15 -1.000000000
123 16 -1.000000000
123 17 -1.000000000
123 18 -1.000000000
123 19 -1.000000000
123 20 -1.000000000
123 21 -1.000000000
123 22 -1.000000000
123 23 -1.000000000
123 24 -1.000000000
123 25 -1.000000000
123 26 -1.000000000
123 27 -1.000000000
123 28 -1.000000000
124 1 1.000000000
124 15 1.000000000
124 29 1.000000000
124 30 1.000000000
124 31 1.000000000
124 32 1.000000000
124 33 1.000000000
124 34 1.000000000
124 35 1.000000000
124 36 1.000000000
124 37 1.000000000
124 38 1.000000000
124 39 1.000000000
124 40 1.000000000
124 41 1.000000000
125 1 -1.000000000
125 15 -1.000000000
125 29 -1.000000000
125 30 -1.000000000
125 31 -1.000000000
125 32 -1.000000000
125 33 -1.000000000
125 34 -1.000000000
125 35 -1.000000000
125 36 -1.000000000
125 37 -1.000000000
125 38 -1.000000000
125 39 -1.000000000
125 40 -1.000000000
125 41 -1.000000000
126 2 1.000000000
126 16 1.000000000
126 29 1.000000000
126 42 1.000000000
126 43 1.000000000
126 44 1.000000000
126 45 1.000000000
126 46 1.000000000
126 47 1.000000000
126 48 1.000000000
126 49 1.000000000
126 50 1.000000000
126 51 1.000000000
126 52 1.000000000
126 53 1.000000000
127 2 -1.000000000
127 16 -1.000000000
127 29 -1.000000000
127 42 -1.000000000
127 43 -1.000000000
127 44 -1.000000000
127 45 -1.000000000
127 46 -1.000000000
127 47 -1.000000000
127 48 -1.000000000
127 49 -1.000000000
127 50 -1.000000000
127 51 -1.000000000
127 52 -1.000000000
127 53 -1.000000000
128 3 1.000000000
128 17 1.000000000
128 30 1.000000000
128 42 1.000000000
128 54 1.000000000
128 55 1.000000000
128 56 1.000000000
128 57 1.000000000
128 58 1.000000000
128 59 1.000000000
128 60 1.000000000
128 61 1.000000000
128 62 1.000000000
128 63 1.000000000
128 64 1.000000000
129 3 -1.000000000
129 17 -1.000000000
129 30 -1.000000000
129 42 -1.000000000
129 54 -1.000000000
129 55 -1.000000000
129 56 -1.000000000
129 57 -1.000000000
129 58 -1.000000000
129 59 -1.000000000
129 60 -1.000000000
129 61 -1.000000000
129 62 -1.000000000
129 63 -1.000000000
129 64 -1.000000000
130 4 1.000000000
130 18 1.000000000
130 31 1.000000000
130 43 1.000000000
130 54 1.000000000
130 65 1.000000000
130 66 1.000000000
130 67 1.000000000
130 68 1.000000000
130 69 1.000000000
130 70 1.000000000
130 71 1.000000000
130 72 1.000000000
130 73 1.000000000
130 74 1.000000000
131 4 -1.000000000
131 18 -1.000000000
131 31 -1.000000000
131 43 -1.000000000
131 54 -1.000000000
131 65 -1.000000000
131 66 -1.000000000
131 67 -1.000000000
131 68 -1.000000000
131 69 -1.000000000
131 70 -1.000000000
131 71 -1.000000000
131 72 -1.000000000
131 73 -1.000000000
131 74 -1.000000000
132 5 1.000000000
132 19 1.000000000
132 32 1.000000000
132 44 1.000000000
132 55 1.000000000
132 65 1.000000000
132 75 1.000000000
132 76 1.000000000
132 77 1.000000000
132 78 1.000000000
132 79 1.000000000
132 80 1.000000000
132 81 1.000000000
132 82 1.000000000
132 83 1.000000000
133 5 -1.000000000
133 19 -1.000000000
133 32 -1.000000000
133 44 -1.000000000
133 55 -1.000000000
133 65 -1.000000000
133 75 -1.000000000
133 76 -1.000000000
133 77 -1.000000000
133 78 -1.000000000
133 79 -1.000000000
133 80 -1.000000000
133 81 -1.000000000
133 82 -1.000000000
133 83 -1.000000000
134 6 1.000000000
134 20 1.000000000
134 33 1.000000000
134 45 1.000000000
134 56 1.000000000
134 66 1.000000000
134 75 1.000000000
134 84 1.000000000
134 85 1.000000000
134 86 1.000000000
134 87 1.000000000
134 88 1.000000000
134 89 1.000000000
134 90 1.000000000
134 91 1.000000000
135 6 -1.000000000
135 20 -1.000000000
135 33 -1.000000000
135 45 -1.000000000
135 56 -1.000000000
135 66 -1.000000000
135 75 -1.000000000
135 84 -1.000000000
135 85 -1.000000000
135 86 -1.000000000
135 87 -1.000000000
135 88 -1.000000000
135 89 -1.000000000
135 90 -1.000000000
135 91 -1.000000000
136 7 1.000000000
136 21 1.000000000
136 34 1.000000000
136 46 1.000000000
136 57 1.000000000
136 67 1.000000000
136 76 1.000000000
136 84 1.000000000
136 92 1.000000000
136 93 1.000000000
136 94 1.000000000
136 95 1.000000000
136 96 1.000000000
136 97 1.000000000
136 98 1.000000000
137 7 -1.000000000
137 21 -1.000000000
137 34 -1.000000000
137 46 -1.000000000
137 57 -1.000000000
137 67 -1.000000000
137 76 -1.000000000
137 84 -1.000000000
137 92 -1.000000000
137 93 -1.000000000
137 94 -1.000000000
137 95 -1.000000000
137 96 -1.000000000
137 97 -1.000000000
137 98 -1.000000000
138 8 1.000000000
138 22 1.000000000
138 35 1.000000000
138 47 1.000000000
138 58 1.000000000
138 68 1.000000000
138 77 1.000000000
138 85 1.000000000
138 92 1.000000000
138 99 1.000000000
138 100 1.000000000
138 101 1.000000000
138 102 1.000000000
138 103 1.000000000
138 104 1.000000000
139 8 -1.000000000
139 22 -1.000000000
139 35 -1.000000000
139 47 -1.000000000
139 58 -1.000000000
139 68 -1.000000000
139 77 -1.000000000
139 85 -1.000000000
139 92 -1.000000000
139 99 -1.000000000
139 100 -1.000000000
139 101 -1.000000000
139 102 -1.000000000
139 103 -1.000000000
139 104 -1.000000000
140 9 1.000000000
140 23 1.000000000
140 36 1.000000000
140 48 1.000000000
140 59 1.000000000
140 69 1.000000000
140 78 1.000000000
140 86 1.000000000
140 93 1.000000000
140 99 1.000000000
140 105 1.000000000
140 106 1.000000000
140 107 1.000000000
140 108 1.000000000
140 109 1.000000000
141 9 -1.000000000
141 23 -1.000000000
141 36 -1.000000000
141 48 -1.000000000
141 59 -1.000000000
141 69 -1.000000000
141 78 -1.000000000
141 86 -1.000000000
141 93 -1.000000000
141 99 -1.000000000
141 105 -1.000000000
141 106 -1.000000000
141 107 -1.000000000
141 108 -1.000000000
141 109 -1.000000000
142 10 1.000000000
142 24 1.000000000
142 37 1.000000000
142 49 1.000000000
142 60 1.000000000
142 70 1.000000000
142 79 1.000000000
142 87 1.000000000
142 94 1.000000000
142 100 1.000000000
142 105 1.000000000
142 110 1.000000000
142 111 1.000000000
142 112 1.000000000
142 113 1.000000000
143 10 -1.000000000
143 24 -1.000000000
143 37 -1.000000000
143 49 -1.000000000
143 60 -1.000000000
143 70 -1.000000000
143 79 -1.000000000
143 87 -1.000000000
143 94 -1.000000000
143 100 -1.000000000
143 105 -1.000000000
143 110 -1.000000000
143 111 -1.000000000
143 112 -1.000000000
143 113 -1.000000000
144 11 1.000000000
144 25 1.000000000
144 38 1.000000000
144 50 1.000000000
144 61 1.000000000
144 71 1.000000000
144 80 1.000000000
144 88 1.000000000
144 95 1.000000000
144 101 1.000000000
144 106 1.000000000
144 110 1.000000000
144 114 1.000000000
144 115 1.000000000
144 116 1.000000000
145 11 -1.000000000
145 25 -1.000000000
145 38 -1.000000000
145 50 -1.000000000
145 61 -1.000000000
145 71 -1.000000000
145 80 -1.000000000
145 88 -1.000000000
145 95 -1.000000000
145 101 -1.000000000
145 106 -1.000000000
145 110 -1.000000000
145 114 -1.000000000
145 115 -1.000000000
145 116 -1.000000000
146 12 1.000000000
146 26 1.000000000
146 39 1.000000000
146 51 1.000000000
146 62 1.000000000
146 72 1.000000000
146 81 1.000000000
146 89 1.000000000
146 96 1.000000000
146 102 1.000000000
146 107 1.000000000
146 111 1.000000000
146 114 1.000000000
146 117 1.000000000
146 118 1.000000000
147 12 -1.000000000
147 26 -1.000000000
147 39 -1.000000000
147 51 -1.000000000
147 62 -1.000000000
147 72 -1.000000000
147 81 -1.000000000
147 89 -1.000000000
147 96 -1.000000000
147 102 -1.000000000
147 107 -1.000000000
147 111 -1.000000000
147 114 -1.000000000
147 117 -1.000000000
147 118 -1.000000000
148 13 1.000000000
148 27 1.000000000
148 40 1.000000000
148 52 1.000000000
148 63 1.000000000
148 73 1.000000000
148 82 1.000000000
148 90 1.000000000
148 97 1.000000000
148 103 1.000000000
148 108 1.000000000
148 112 1.000000000
148 115 1.000000000
148 117 1.000000000
148 119 1.000000000
149 13 -1.000000000
149 27 -1.000000000
149 40 -1.000000000
149 52 -1.000000000
149 63 -1.000000000
149 73 -1.000000000
149 82 -1.000000000
149 90 -1.000000000
149 97 -1.000000000
149 103 -1.000000000
149 108 -1.000000000
149 112 -1.000000000
149 115 -1.000000000
149 117 -1.000000000
149 119 -1.000000000
150 14 1.000000000
150 28 1.000000000
150 41 1.000000000
150 53 1.000000000
150 64 1.000000000
150 74 1.000000000
150 83 1.000000000
150 91 1.000000000
150 98 1.000000000
150 104 1.000000000
150 109 1.000000000
150 113 1.000000000
150 116 1.000000000
150 118 1.000000000
150 119 1.000000000
151 14 -1.000000000
151 28 -1.000000000
151 41 -1.000000000
151 53 -1.000000000
151 64 -1.000000000
151 74 -1.000000000
151 83 -1.000000000
151 91 -1.000000000
151 98 -1.000000000
151 104 -1.000000000
151 109 -1.000000000
151 113 -1.000000000
151 116 -1.000000000
151 118 -1.000000000
151 119 -1.000000000

BCOORD
152
0 1.000000000
1 1.000000000
2 1.000000000
3 1.000000000
4 1.000000000
5 1.000000000
6 1.000000000
7 1.000000000
8 1.000000000
9 1.000000000
10 1.000000000
11 1.000000000
12 1.000000000
13 1.000000000
14 1.000000000
15 1.000000000
16 1.000000000
17 1.000000000
18 1.000000000
19 1.000000000
20 1.000000000
21 1.000000000
22 1.000000000
23 1.000000000
24 1.000000000
25 1.000000000
26 1.000000000
27 1.000000000
28 1.000000000
29 1.000000000
30 1.000000000
31 1.000000000
32 1.000000000
33 1.000000000
34 1.000000000
35 1.000000000
36 1.000000000
37 1.000000000
38 1.000000000
39 1.000000000
40 1.000000000
41 1.000000000
42 1.000000000
43 1.000000000
44 1.000000000
45 1.000000000
46 1.000000000
47 1.000000000
48 1.000000000
49 1.000000000
50 1.000000000
51 1.000000000
52 1.000000000
53 1.000000000
54 1.000000000
55 1.000000000
56 1.000000000
57 1.000000000
58 1.000000000
59 1.000000000
60 1.000000000
61 1.000000000
62 1.000000000
63 1.000000000
64 1.000000000
65 1.000000000
66 1.000000000
67 1.000000000
68 1.000000000
69 1.000000000
70 1.000000000
71 1.000000000
72 1.000000000
73 1.000000000
74 1.000000000
75 1.000000000
76 1.000000000
77 1.000000000
78 1.000000000
79 1.000000000
80 1.000000000
81 1.000000000
82 1.000000000
83 1.000000000
84 1.000000000
85 1.000000000
86 1.000000000
87 1.000000000
88 1.000000000
89 1.000000000
90 1.000000000
91 1.000000000
92 1.000000000
93 1.000000000
94 1.000000000
95 1.000000000
96 1.000000000
97 1.000000000
98 1.000000000
99 1.000000000
100 1.000000000
101 1.000000000
102 1.000000000
103 1.000000000
104 1.000000000
105 1.000000000
106 1.000000000
107 1.000000000
108 1.000000000
109 1.000000000
110 1.000000000
111 1.000000000
112 1.000000000
113 1.000000000
114 1.000000000
115 1.000000000
116 1.000000000
117 1.000000000
118 1.000000000
119 1.000000000
120 -4.000000000
121 5.000000000
122 -4.000000000
123 5.000000000
124 -4.000000000
125 5.000000000
126 -4.000000000
127 5.000000000
128 -4.000000000
129 5.000000000
130 -4.000000000
131 5.000000000
132 -4.000000000
133 5.000000000
134 -4.000000000
135 5.000000000
136 -4.000000000
137 5.000000000
138 -4.000000000
139 5.000000000
140 -4.000000000
141 5.000000000
142 -4.000000000
143 5.000000000
144 -4.000000000
145 5.000000000
146 -4.000000000
147 5.000000000
148 -4.000000000
149 5.000000000
150 -4.000000000
151 5.000000000

HCOORD
120
0 0 1 0 1.500000000
0 1 2 0 1.500000000
0 2 3 0 1.500000000
0 3 4 0 1.500000000
0 4 5 0 1.500000000
0 5 6 0 1.500000000
0 6 7 0 1.500000000
0 7 8 0 1.500000000
0 8 9 0 1.500000000
0 9 10 0 1.500000000
0 10 11 0 1.500000000
0 11 12 0 1.500000000
0 12 13 0 1.500000000
0 13 14 0 1.500000000
0 14 15 0 1.500000000
0 15 2 1 1.500000000
0 16 3 1 1.500000000
0 17 4 1 1.500000000
0 18 5 1 1.500000000
0 19 6 1 1.500000000
0 20 7 1 1.500000000
0 21 8 1 1.500000000
0 22 9 1 1.500000000
0 23 10 1 1.500000000
0 24 11 1 1.500000000
0 25 12 1 1.500000000
0 26 13 1 1.500000000
0 27 14 1 1.500000000
0 28 15 1 1.500000000
0 29 3 2 1.500000000
0 30 4 2 1.500000000
0 31 5 2 1.500000000
0 32 6 2 1.500000000
0 33 7 2 1.500000000
0 34 8 2 1.500000000
0 35 9 2 1.500000000
0 36 10 2 1.500000000
0 37 11 2 1.500000000
0 38 12 2 1.500000000
0 39 13 2 1.500000000
0 40 14 2 1.500000000
0 41 15 2 1.500000000
0 42 4 3 1.500000000
0 43 5 3 1.500000000
0 44 6 3 1.500000000
0 45 7 3 1.500000000
0 46 8 3 1.500000000
0 47 9 3 1.500000000
0 48 10 3 1.500000000
0 49 11 3 1.500000000
0 50 12 3 1.500000000
0 51 13 3 1.500000000
0 52 14 3 1.500000000
0 53 15 3 1.500000000
0 54 5 4 1.500000000
0 55 6 4 1.500000000
0 56 7 4 1.500000000
0 57 8 4 1.500000000
0 58 9 4 1.500000000
0 59 10 4 1.500000000
0 60 11 4 1.500000000
0 61 12 4 1.500000000
0 62 13 4 1.500000000
0 63 14 4 1.500000000
0 64 15 4 1.500000000
0 65 6 5 1.500000000
0 66 7 5 1.500000000
0 67 8 5 1.500000000
0 68 9 5 1.500000000
0 69 10 5 1.500000000
0 70 11 5 1.500000000
0 71 12 5 1.500000000
0 72 13 5 1.500000000
0 73 14 5 1.500000000
0 74 15 5 1.500000000
0 75 7 6 1.500000000
0 76 8 6 1.500000000
0 77 9 6 1.500000000
0 78 10 6 1.500000000
0 79 11 6 1.500000000
0 80 12 6 1.500000000
0 81 13 6 1.500000000
0 82 14 6 1.500000000
0 83 15 6 1.500000000
0 84 8 7 1.500000000
0 85 9 7 1.500000000
0 86 10 7 1.500000000
0 87 11 7 1.500000000
0 88 12 7 1.500000000
0 89 13 7 1.500000000
0 90 14 7 1.500000000
0 91 15 7 1.500000000
0 92 9 8 1.500000000
0 93 10 8 1.500000000
0 94 11 8 1.500000000
0 95 12 8 1.500000000
0 96 13 8 1.500000000
0 97 14 8 1.500000000
0 98 15 8 1.500000000
0 99 10 9 1.500000000
0 100 11 9 1.500000000
0 101 12 9 1.500000000
0 102 13 9 1.500000000
0 103 14 9 1.500000000
0 104 15 9 1.500000000
0 105 11 10 1.500000000
0 106 12 10 1.500000000
0 107 13 10 1.500000000
0 108 14 10 1.500000000
0 109 15 10 1.500000000
0 110 12 11 1.500000000
0 111 13 11 1.500000000
0 112 14 11 1.500000000
0 113 15 11 1.500000000
0 114 13 12 1.500000000
0 115 14 12 1.500000000
0 116 15 12 1.500000000
0 117 14 13 1.500000000
0 118 15 13 1.500000000
0 119 15 14 1.500000000

DCOORD
136
0 0 0 1.000000000
0 1 1 1.000000000
0 2 2 1.000000000
0 3 3 1.000000000
0 4 4 1.000000000
0 5 5 1.000000000
0 6 6 1.000000000
0 7 7 1.000000000
0 8 8 1.000000000
0 9 9 1.000000000
0 10 10 1.000000000
0 11 11 1.000000000
0 12 12 1.000000000
0 13 13 1.000000000
0 14 14 1.000000000
0 15 15 1.000000000
0 1 0 -0.500000000
0 2 0 -0.500000000
0 3 0 -0.500000000
0 4 0 -0.500000000
0 5 0 -0.500000000
0 6 0 -0.500000000
0 7 0 -0.500000000
0 8 0 -0.500000000
0 9 0 -0.500000000
0 10 0 -0.500000000
0 11 0 -0.500000000
0 12 0 -0.500000000
0 13 0 -0.500000000
0 14 0 -0.500000000
0 15 0 -0.500000000
0 2 1 -0.500000000
0 3 1 -0.500000000
0 4 1 -0.500000000
0 5 1 -0.500000000
0 6 1 -0.500000000
0 7 1 -0.500000000
0 8 1 -0.500000000
0 9 1 -0.500000000
0 10 1 -0.500000000
0 11 1 -0.500000000
0 12 1 -0.500000000
0 13 1 -0.500000000
0 14 1 -0.500000000
0 15 1 -0.500000000
0 3 2 -0.500000000
0 4 2 -0.500000000
0 5 2 -0.500000000
0 6 2 -0.500000000
0 7 2 -0.500000000
0 8 2 -0.500000000
0 9 2 -0.500000000
0 10 2 -0.500000000
0 11 2 -0.500000000
0 12 2 -0.500000000
0 13 2 -0.500000000
0 14 2 -0.500000000
0 15 2 -0.500000000
0 4 3 -0.500000000
0 5 3 -0.500000000
0 6 3 -0.500000000
0 7 3 -0.500000000
0 8 3 -0.500000000
0 9 3 -0.500000000
0 10 3 -0.500000000
0 11 3 -0.500000000
0 12 3 -0.500000000
0 13 3 -0.500000000
0 14 3 -0.500000000
0 15 3 -0.500000000
0 5 4 -0.500000000
0 6 4 -0.500000000
0 7 4 -0.500000000
0 8 4 -0.500000000
0 9 4 -0.500000000
0 10 4 -0.500000000
0 11 4 -0.500000000
0 12 4 -0.500000000
0 13 4 -0.500000000
0 14 4 -0.500000000
0 15 4 -0.500000000
0 6 5 -0.500000000
0 7 5 -0.500000000
0 8 5 -0.500000000
0 9 5 -0.500000000
0 10 5 -0.500000000
0 11 5 -0.500000000
0 12 5 -0.500000000
0 13 5 -0.500000000
0 14 5 -0.500000000
0 15 5 -0.500000000
0 7 6 -0.500000000
0 8 6 -0.500000000
0 9 6 -0.500000000
0 10 6 -0.500000000
0 11 6 -0.500000000
0 12 6 -0.500000000
0 13 6 -0.500000000
0 14 6 -0.500000000
0 15 6 -0.500000000
0 8 7 -0.500000000
0 9 7 -0.500000000
0 10 7 -0.500000000
0 11 7 -0.500000000
0 12 7 -0.500000000
0 13 7 -0.500000000
0 14 7 -0.500000000
0 15 7 -0.500000000
0 9 8 -0.500000000
0 10 8 -0.500000000
0 11 8 -0.500000000
0 12 8 -0.500000000
0 13 8 -0.500000000
0 14 8 -0.500000000
0 15 8 -0.500000000
0 10 9 -0.500000000
0 11 9 -0.500000000
0 12 9 -0.500000000
0 13 9 -0.500000000
0 14 9 -0.500000000
0 15 9 -0.500000000
0 11 10 -0.500000000
0 12 10 -0.500000000
0 13 10 -0.500000000
0 14 10 -0.500000000
0 15 10 -0.500000000
0 12 11 -0.500000000
0 13 11 -0.500000000
0 14 11 -0.500000000
0 15 11 -0.500000000
0 13 12 -0.500000000
0 14 12 -0.500000000
0 15 12 -0.500000000
0 14 13 -0.500000000
0 15 13 -0.500000000
0 15 14 -0.500000000
